\ LP format - for model browsing. Use MPS format to capture full model detail.
Minimize
  X0 + X1 + 0 X32 + 0 X33 + 0 X34 + 0 X35 + 0 X36 + 0 X37 + 0 X38 + 0 X39
   + 0 X118 + 0 X119 + 0 X120 + 0 X121 + 0 X122 + 0 X123 + 0 X124 + 0 X125
   + 0 X204 + 0 X205 + 0 X206 + 0 X207 + 0 X208 + 0 X209 + 0 X210 + 0 X211
   + 0 X290 + 0 X291 + 0 X292 + 0 X293 + 0 X294 + 0 X295 + 0 X296 + 0 X297
   + 0 X321 + 0 X330 + 0 X331 + 0 X332 + 0 X333 + 0 X334 + 0 X335 + 0 X336
   + 0 X337 + 0 X338 + 0 X339 + 0 X340 + 0 X341 + 0 X342 + 0 X343 + 0 X344
   + 0 X345 + 0 X346 + 0 X347 + 0 X348 + 0 X349 + 0 X350 + 0 X351 + 0 X352
   + 0 X353 + 0 X354 + 0 X355 + 0 X356 + 0 X357 + 0 X358 + 0 X359 + 0 X360
   + 0 X361 + 0 X362 + 0 X363 + 0 X364 + 0 X365 + 0 X366 + 0 X367 + 0 X368
   + 0 X369 + 0 X370 + 0 X371 + 0 X372 + 0 X373 + 0 X374 + 0 X375 + 0 X376
   + 0 X377 + 0 X378 + 0 X379 + 0 X380 + 0 X381 + 0 X382 + 0 X383 + 0 X384
   + 0 X385 + 0 X386 + 0 X387 + 0 X388 + 0 X389 + 0 X390 + 0 X391 + 0 X392
   + 0 X393 + 0 X394 + 0 X395 + 0 X396 + 0 X397 + 0 X398 + 0 X399 + 0 X400
   + 0 X401 + 0 X402 + 0 X403 + 0 X404 + 0 X405 + 0 X406 + 0 X407 + 0 X408
   + 0 X409 + 0 X410 + 0 X411 + 0 X412 + 0 X413 + 0 X414 + 0 X415 + 0 X425
   + 0 X426 + 0 X427 + 0 X428 + 0 X429 + 0 X430 + 0 X431 + 0 X432 + 0 X433
   + 0 X434 + 0 X435 + 0 X436 + 0 X437 + 0 X438 + 0 X439 + 0 X440 + 0 X441
   + 0 X442 + 0 X443 + 0 X444 + 0 X445 + 0 X446 + 0 X447 + 0 X448 + 0 X449
   + 0 X450 + 0 X451 + 0 X452 + 0 X453 + 0 X454 + 0 X455 + 0 X456 + 0 X457
   + 0 X458 + 0 X459 + 0 X460 + 0 X461 + 0 X462 + 0 X463 + 0 X464 + 0 X465
   + 0 X466 + 0 X467 + 0 X468 + 0 X469 + 0 X470 + 0 X471 + 0 X472 + 0 X473
   + 0 X474 + 0 X475 + 0 X476 + 0 X477 + 0 X478 + 0 X479 + 0 X480 + 0 X481
   + 0 X482 + 0 X483 + 0 X484 + 0 X485 + 0 X486 + 0 X487 + 0 X488 + 0 X489
   + 0 X490 + 0 X491 + 0 X492 + 0 X493 + 0 X494 + 0 X495 + 0 X496 + 0 X497
   + 0 X498 + 0 X499 + 0 X500 + 0 X501 + 0 X502 + 0 X503 + 0 X504 + 0 X505
   + 0 X506 + 0 X507 + 0 X508 + 0 X509 + 0 X510 + 0 X535 + 0 X536 + 0 X537
   + 0 X538 + 0 X539 + 0 X540 + 0 X541 + 0 X542 + 0 X543 + 0 X544 + 0 X545
   + 0 X546 + 0 X547 + 0 X548 + 0 X549 + 0 X550 + 0 X551 + 0 X552 + 0 X553
   + 0 X554 + 0 X555 + 0 X556 + 0 X557 + 0 X558 + 0 X559 + 0 X560 + 0 X561
   + 0 X562 + 0 X563 + 0 X564 + 0 X565 + 0 X566 + 0 X567 + 0 X568 + 0 X569
   + 0 X570 + 0 X571 + 0 X572 + 0 X573 + 0 X574 + 0 X575 + 0 X576 + 0 X577
   + 0 X578 + 0 X579 + 0 X580 + 0 X581 + 0 X582 + 0 X583 + 0 X584 + 0 X585
   + 0 X586 + 0 X587 + 0 X588 + 0 X589 + 0 X590 + 0 X591 + 0 X592 + 0 X593
   + 0 X594 + 0 X595 + 0 X596 + 0 X597 + 0 X612 + 0 X613 + 0 X614 + 0 X615
   + 0 X616 + 0 X617 + 0 X618 + 0 X619 + 0 X620 + 0 X621 + 0 X622 + 0 X623
   + 0 X624 + 0 X625 + 0 X626 + 0 X627 + 0 X628 + 0 X629 + 0 X630 + 0 X631
   + 0 X632 + 0 X633 + 0 X634 + 0 X635 + 0 X636 + 0 X637 + 0 X638 + 0 X639
   + 0 X640 + 0 X641 + 0 X642 + 0 X643 + 0 X644 + 0 X645 + 0 X646 + 0 X647
   + 0 X648 + 0 X649 + 0 X650 + 0 X651 + 0 X652 + 0 X653 + 0 X654 + 0 X655
   + 0 X656 + 0 X657 + 0 X658 + 0 X659 + 0 X660 + 0 X661 + 0 X662 + 0 X663
   + 0 X664 + 0 X665 + 0 X666 + 0 X667 + 0 X668 + 0 X669 + 0 X670 + 0 X671
   + 0 X672 + 0 X673 + 0 X674 + 0 X689 + 0 X690 + 0 X691 + 0 X692 + 0 X693
   + 0 X694 + 0 X695 + 0 X696 + 0 X697 + 0 X698 + 0 X699 + 0 X700 + 0 X701
   + 0 X702 + 0 X703 + 0 X704 + 0 X705 + 0 X706 + 0 X707 + 0 X708 + 0 X709
   + 0 X710 + 0 X711 + 0 X712 + 0 X713 + 0 X714 + 0 X715 + 0 X716 + 0 X717
   + 0 X718 + 0 X719 + 0 X720 + 0 X721 + 0 X722 + 0 X723 + 0 X724 + 0 X725
   + 0 X726 + 0 X727 + 0 X728 + 0 X729 + 0 X730 + 0 X731 + 0 X732 + 0 X733
   + 0 X734 + 0 X735 + 0 X736 + 0 X737 + 0 X738 + 0 X739 + 0 X740 + 0 X741
   + 0 X742 + 0 X743 + 0 X744 + 0 X745 + 0 X746 + 0 X747 + 0 X748 + 0 X749
   + 0 X750 + 0 X751 + 0 X766 + 0 X767 + 0 X768 + 0 X769 + 0 X770 + 0 X771
   + 0 X772 + 0 X773 + 0 X774 + 0 X775 + 0 X776 + 0 X777 + 0 X778 + 0 X779
   + 0 X780 + 0 X781 + 0 X782 + 0 X783 + 0 X784 + 0 X785 + 0 X786 + 0 X787
   + 0 X788 + 0 X789 + 0 X790 + 0 X791 + 0 X792 + 0 X793 + 0 X794 + 0 X795
   + 0 X796 + 0 X797 + 0 X798 + 0 X799 + 0 X800 + 0 X801 + 0 X802 + 0 X803
   + 0 X804 + 0 X805 + 0 X806 + 0 X807 + 0 X808 + 0 X809 + 0 X810 + 0 X811
   + 0 X812 + 0 X813 + 0 X814 + 0 X815 + 0 X816 + 0 X817 + 0 X818 + 0 X819
   + 0 X820 + 0 X821 + 0 X822 + 0 X823 + 0 X824 + 0 X825 + 0 X826 + 0 X827
   + 0 X828 + 0 X829 + 0 X830 + 0 X831 + 0 X832 + 0 X833 + 0 X838 + 0 X839
   + 0 X840 + 0 X841 + 0 X842 + 0 X843 + 0 X844 + 0 X846 + 0 X847 + 0 X848
   + 0 X849 + 0 X850 + 0 X851 + 0 X852 + 0 X853 + 0 X854 + 0 X855 + 0 X856
   + 0 X857 + 0 X858 + 0 X859 + 0 X860 + 0 X861 + 0 X862 + 0 X863 + 0 X864
   + 0 X865 + 0 X866 + 0 X867 + 0 X868 + 0 X869 + 0 X870 + 0 X871 + 0 X872
   + 0 X873 + 0 X874 + 0 X875 + 0 X876 + 0 X877 + 0 X878 + 0 X879 + 0 X880
   + 0 X881 + 0 X882 + 0 X883 + 0 X884 + 0 X885 + 0 X886 + 0 X887 + 0 X888
   + 0 X889 + 0 X890 + 0 X891 + 0 X892 + 0 X893 + 0 X894 + 0 X895 + 0 X896
   + 0 X897 + 0 X898 + 0 X899 + 0 X900 + 0 X901 + 0 X902 + 0 X903 + 0 X904
   + 0 X905 + 0 X906 + 0 X907 + 0 X908 + 0 X909 + 0 X910 + 0 X911 + 0 X912
   + 0 X913 + 0 X914 + 0 X915 + 0 X916 + 0 X917 + 0 X918 + 0 X919 + 0 X920
   + 0 X921 + 0 X922 + 0 X923 + 0 X924 + 0 X925 + 0 X926 + 0 X927 + 0 X928
   + 0 X929 + 0 X930 + 0 X931 + 0 X941 + 0 X942 + 0 X943 + 0 X944 + 0 X945
   + 0 X946 + 0 X947 + 0 X948 + 0 X949 + 0 X950 + 0 X951 + 0 X952 + 0 X953
   + 0 X954 + 0 X955 + 0 X956 + 0 X957 + 0 X958 + 0 X959 + 0 X960 + 0 X961
   + 0 X962 + 0 X963 + 0 X964 + 0 X965 + 0 X966 + 0 X967 + 0 X968 + 0 X969
   + 0 X970 + 0 X971 + 0 X972 + 0 X973 + 0 X974 + 0 X975 + 0 X976 + 0 X977
   + 0 X978 + 0 X979 + 0 X980 + 0 X981 + 0 X982 + 0 X983 + 0 X984 + 0 X985
   + 0 X986 + 0 X987 + 0 X988 + 0 X989 + 0 X990 + 0 X991 + 0 X992 + 0 X993
   + 0 X994 + 0 X995 + 0 X996 + 0 X997 + 0 X998 + 0 X999 + 0 X1000
   + 0 X1001 + 0 X1002 + 0 X1003 + 0 X1004 + 0 X1005 + 0 X1006 + 0 X1007
   + 0 X1008 + 0 X1009 + 0 X1010 + 0 X1011 + 0 X1012 + 0 X1013 + 0 X1014
   + 0 X1015 + 0 X1016 + 0 X1017 + 0 X1018 + 0 X1019 + 0 X1020 + 0 X1021
   + 0 X1022 + 0 X1023 + 0 X1024 + 0 X1025 + 0 X1026
Subject To
 C0: X0 - X319 = 0
 C1: X1 - X320 - X837 = 0
 C2: X329 + X845 = 1
 C3: X424 + X940 = 1
 C5: - X41 - X50 - X59 - X109 - X127 - X136 - X186 - X195 - X213 - X263
   - X272 - X281 - X317 - X318 + X319 >= 0
 C6: X4 + X5 + X6 + X7 = 1
 C7: X2 + 999999 X4 <= 999998
 C8: X2 - 999999 X5 >= -999996
 C9: X3 - 999999 X6 >= -999990
 C10: X3 + 999999 X7 <= 1.000002e+06
 C11: - X2 + X3 + 999999 X8 >= 8
 C12: - X2 + X3 + 999999 X8 <= 1.000007e+06
 C13: X2 + X3 + 999999 X9 >= 10
 C14: X2 + X3 + 999999 X9 <= 1.000009e+06
 C15: - X2 + X3 + 999999 X10 >= 2
 C16: - X2 + X3 + 999999 X10 <= 1.000001e+06
 C17: X2 + X3 + 999999 X11 >= 4
 C18: X2 + X3 + 999999 X11 <= 1.000003e+06
 C19: 2 X2 + X3 + 999999 X12 >= 8
 C20: 2 X2 + X3 + 999999 X12 <= 1.000007e+06
 C21: - 2 X2 + X3 + 999999 X13 >= 4
 C22: - 2 X2 + X3 + 999999 X13 <= 1.000003e+06
 C23: - X9 + X14 <= 0
 C24: X11 + X14 <= 1
 C25: X13 + X14 <= 1
 C26: - X9 + X11 + X13 + X14 >= 0
 C27: - X8 + X15 <= 0
 C28: X10 + X15 <= 1
 C29: X12 + X15 <= 1
 C30: - X8 + X10 + X12 + X15 >= 0
 C31: - X8 + X16 <= 0
 C32: - X12 + X16 <= 0
 C33: X10 + X16 <= 1
 C34: - X8 + X10 - X12 + X16 >= -1
 C35: - X9 + X17 <= 0
 C36: - X13 + X17 <= 0
 C37: X11 + X17 <= 1
 C38: - X9 + X11 - X13 + X17 <= -1
 C39: - X534 >= -1
 C40: - X18 + X95 - X611 >= -1
 C41: - X18 + X172 - X688 >= -1
 C42: - X18 + X249 - X765 >= -1
 C43: - 999999 X14 + 999999 X18 - X534 - X611 - X688 - X765 >= -999999
 C44: - X14 + X312 >= 0
 C45: - X531 >= -1
 C46: - 999999 X17 + 999999 X19 - X531 >= -999999
 C47: - X19 + X313 >= 0
 C48: - X533 >= -1
 C49: - 999999 X15 + 999999 X20 - X533 >= -999999
 C50: - X20 + X314 >= 0
 C51: - X532 >= -1
 C52: - X21 + X98 - X609 >= -1
 C53: - X21 + X175 - X686 >= -1
 C54: - X21 + X252 - X763 >= -1
 C55: - 999999 X16 + 999999 X21 - X532 - X609 - X686 - X763 >= -999999
 C56: - X21 + X315 >= 0
 C57: - X18 - X19 - X20 - X21 + 4 X22 >= 0
 C58: - X312 - X313 - X314 - X315 + 4 X316 >= 0
 C59: - X18 - X19 + X23 + X24 = 0
 C60: - X20 - X21 + X25 + X26 - X28 = 0
 C62: X31 = 0
 C63: X40 + X108 <= 1
 C64: X49 + X185 <= 1
 C65: X58 + X262 <= 1
 C66: - 2 X24 - 2 X26 + X29 = 0
 C67: - 4 X23 - 8 X24 - 8 X25 - 4 X26 + X30 = 0
 C68: - 999999 X27 - 1.414213562373095 X69 - X70 + X317 >= -999999
 C69: - X2 + X29 + X71 = 0
 C70: - X3 + X30 + X72 = 0
 C71: - X67 + X68 + X73 = 0
 C72: - 999999 X40 + X41 - 1.414213562373095 X44 - X45 >= -999999
 C73: X29 - X46 - X106 = 0
 C74: X30 - X47 - X107 = 0
 C75: X42 - X43 - X48 = 0
 C76: - 999999 X49 + X50 - 1.414213562373095 X53 - X54 >= -999999
 C77: X29 - X55 - X183 = 0
 C78: X30 - X56 - X184 = 0
 C79: X51 - X52 - X57 = 0
 C80: - 999999 X58 + X59 - 1.414213562373095 X62 - X63 >= -999999
 C81: X29 - X64 - X260 = 0
 C82: X30 - X65 - X261 = 0
 C83: X60 - X61 - X66 = 0
 C84: - 999999 X28 - 1.414213562373095 X76 - X77 + X318 >= -999999
 C85: - X29 - X78 + X519 = 0
 C86: - X30 - X79 + X520 = 0
 C87: X74 - X75 - X80 = 0
 C88: X81 + X82 + X83 + X84 = 1
 C89: X2 + 999999 X81 <= 1.000002e+06
 C90: X2 - 999999 X82 >= -999992
 C91: X3 - 999999 X83 >= -999988
 C92: X3 + 999999 X84 <= 1.000002e+06
 C93: - X2 + X3 + 999999 X85 >= 6
 C94: - X2 + X3 + 999999 X85 <= 1.000005e+06
 C95: X2 + X3 + 999999 X86 >= 16
 C96: X2 + X3 + 999999 X86 <= 1.000015e+06
 C97: - X2 + X3 + 999999 X87 >= -2
 C98: - X2 + X3 + 999999 X87 <= 999997
 C99: X2 + X3 + 999999 X88 >= 8
 C100: X2 + X3 + 999999 X88 <= 1.000007e+06
 C101: 3 X2 + X3 + 999999 X89 >= 22
 C102: 3 X2 + X3 + 999999 X89 <= 1.000021e+06
 C103: - 3 X2 + X3 + 999999 X90 >= -8
 C104: - 3 X2 + X3 + 999999 X90 <= 999991
 C105: - X86 + X91 <= 0
 C106: X88 + X91 <= 1
 C107: X90 + X91 <= 1
 C108: - X86 + X88 + X90 + X91 >= 0
 C109: - X85 + X92 <= 0
 C110: X87 + X92 <= 1
 C111: X89 + X92 <= 1
 C112: - X85 + X87 + X89 + X92 >= 0
 C113: - X85 + X93 <= 0
 C114: - X89 + X93 <= 0
 C115: X87 + X93 <= 1
 C116: - X85 + X87 - X89 + X93 >= -1
 C117: - X86 + X94 <= 0
 C118: - X90 + X94 <= 0
 C119: X88 + X94 <= 1
 C120: - X86 + X88 - X90 + X94 <= -1
 C121: - X611 >= -1
 C122: - X95 + X172 - X688 >= -1
 C123: - X95 + X249 - X765 >= -1
 C124: - 999999 X91 + 999999 X95 - X611 - X688 - X765 >= -999999
 C125: - X91 + X312 >= 0
 C126: - X608 >= -1
 C127: X19 - X96 - X531 >= -1
 C128: - 999999 X94 + 999999 X96 - X531 - X608 >= -999999
 C129: - X96 + X313 >= 0
 C130: - X610 >= -1
 C131: X20 - X97 - X533 >= -1
 C132: - X97 + X174 - X687 >= -1
 C133: - 999999 X92 + 999999 X97 - X533 - X610 - X687 >= -999999
 C134: - X97 + X314 >= 0
 C135: - X609 >= -1
 C136: - X98 + X175 - X686 >= -1
 C137: - X98 + X252 - X763 >= -1
 C138: - 999999 X93 + 999999 X98 - X609 - X686 - X763 >= -999999
 C139: - X98 + X315 >= 0
 C140: - X95 - X96 - X97 - X98 + 4 X99 >= 0
 C141: - X312 - X313 - X314 - X315 + 4 X316 >= 0
 C142: - X95 - X96 + X100 + X101 = 0
 C143: - X97 - X98 + X102 + X103 - X105 = 0
 C145: X40 + X108 <= 1
 C146: X117 = 0
 C147: X126 + X194 <= 1
 C148: X135 + X271 <= 1
 C149: - 4 X100 - 6 X101 - 4 X102 - 6 X103 + X106 = 0
 C150: - 4 X100 - 10 X101 - 10 X102 - 4 X103 + X107 = 0
 C151: - 999999 X104 - 1.414213562373095 X146 - X147 + X317 >= -999999
 C152: - X2 + X106 + X148 = 0
 C153: - X3 + X107 + X149 = 0
 C154: - X144 + X145 + X150 = 0
 C155: - 999999 X108 + X109 - 1.414213562373095 X112 - X113 >= -999999
 C156: - X29 + X106 - X114 = 0
 C157: - X30 + X107 - X115 = 0
 C158: X110 - X111 - X116 = 0
 C159: - 999999 X126 + X127 - 1.414213562373095 X130 - X131 >= -999999
 C160: X106 - X132 - X183 = 0
 C161: X107 - X133 - X184 = 0
 C162: X128 - X129 - X134 = 0
 C163: - 999999 X135 + X136 - 1.414213562373095 X139 - X140 >= -999999
 C164: X106 - X141 - X260 = 0
 C165: X107 - X142 - X261 = 0
 C166: X137 - X138 - X143 = 0
 C167: - 999999 X105 - 1.414213562373095 X153 - X154 + X318 >= -999999
 C168: - X106 - X155 + X519 = 0
 C169: - X107 - X156 + X520 = 0
 C170: X151 - X152 - X157 = 0
 C171: X158 + X159 + X160 + X161 = 1
 C172: X2 + 999999 X158 <= 1.000005e+06
 C173: X2 - 999999 X159 >= -999988
 C174: X3 - 999999 X160 >= -999995
 C175: X3 + 999999 X161 <= 999998
 C176: - X2 + X3 + 999999 X162 >= -4
 C177: - X2 + X3 + 999999 X162 <= 999995
 C178: X2 + X3 + 999999 X163 >= 13
 C179: X2 + X3 + 999999 X163 <= 1.000012e+06
 C180: - X2 + X3 + 999999 X164 >= -10
 C181: - X2 + X3 + 999999 X164 <= 999989
 C182: X2 + X3 + 999999 X165 >= 7
 C183: X2 + X3 + 999999 X165 <= 1.000006e+06
 C184: X2 + X3 + 999999 X166 >= 10
 C185: X2 + X3 + 999999 X166 <= 1.000009e+06
 C186: - X2 + X3 + 999999 X167 >= -7
 C187: - X2 + X3 + 999999 X167 <= 999992
 C188: - X163 + X168 <= 0
 C189: X165 + X168 <= 1
 C190: X167 + X168 <= 1
 C191: - X163 + X165 + X167 + X168 >= 0
 C192: - X162 + X169 <= 0
 C193: X164 + X169 <= 1
 C194: X166 + X169 <= 1
 C195: - X162 + X164 + X166 + X169 >= 0
 C196: - X162 + X170 <= 0
 C197: - X166 + X170 <= 0
 C198: X164 + X170 <= 1
 C199: - X162 + X164 - X166 + X170 >= -1
 C200: - X163 + X171 <= 0
 C201: - X167 + X171 <= 0
 C202: X165 + X171 <= 1
 C203: - X163 + X165 - X167 + X171 <= -1
 C204: - X688 >= -1
 C205: - 999999 X168 + 999999 X172 - X688 >= -999999
 C206: - X168 + X312 >= 0
 C207: - X685 >= -1
 C208: X19 - X173 - X531 >= -1
 C209: X96 - X173 - X608 >= -1
 C210: - X173 + X250 - X762 >= -1
 C211: - 999999 X171 + 999999 X173 - X531 - X608 - X685 - X762 >= -999999
 C212: - X173 + X313 >= 0
 C213: - X687 >= -1
 C214: X20 - X174 - X533 >= -1
 C215: X97 - X174 - X610 >= -1
 C216: - 999999 X169 + 999999 X174 - X533 - X610 - X687 >= -999999
 C217: - X174 + X314 >= 0
 C218: - X686 >= -1
 C219: X98 - X175 - X609 >= -1
 C220: - X175 + X252 - X763 >= -1
 C221: - 999999 X170 + 999999 X175 - X609 - X686 - X763 >= -999999
 C222: - X175 + X315 >= 0
 C223: - X172 - X173 - X174 - X175 + 4 X176 >= 0
 C224: - X312 - X313 - X314 - X315 + 4 X316 >= 0
 C225: - X172 - X173 + X177 + X178 = 0
 C226: - X174 - X175 + X179 + X180 - X182 = 0
 C228: X49 + X185 <= 1
 C229: X126 + X194 <= 1
 C230: X203 = 0
 C231: X212 + X280 <= 1
 C232: - 7 X177 - 10 X178 - 7 X179 - 10 X180 + X183 = 0
 C233: - 3 X178 - 3 X179 + X184 = 0
 C234: - 999999 X181 - 1.414213562373095 X223 - X224 + X317 >= -999999
 C235: - X2 + X183 + X225 = 0
 C236: - X3 + X184 + X226 = 0
 C237: - X221 + X222 + X227 = 0
 C238: - 999999 X185 + X186 - 1.414213562373095 X189 - X190 >= -999999
 C239: - X29 + X183 - X191 = 0
 C240: - X30 + X184 - X192 = 0
 C241: X187 - X188 - X193 = 0
 C242: - 999999 X194 + X195 - 1.414213562373095 X198 - X199 >= -999999
 C243: - X106 + X183 - X200 = 0
 C244: - X107 + X184 - X201 = 0
 C245: X196 - X197 - X202 = 0
 C246: - 999999 X212 + X213 - 1.414213562373095 X216 - X217 >= -999999
 C247: X183 - X218 - X260 = 0
 C248: X184 - X219 - X261 = 0
 C249: X214 - X215 - X220 = 0
 C250: - 999999 X182 - 1.414213562373095 X230 - X231 + X318 >= -999999
 C251: - X183 - X232 + X519 = 0
 C252: - X184 - X233 + X520 = 0
 C253: X228 - X229 - X234 = 0
 C254: X235 + X236 + X237 + X238 = 1
 C255: X2 + 999999 X235 <= 1.000008e+06
 C256: X2 - 999999 X236 >= -999986
 C257: X3 - 999999 X237 >= -999991
 C258: X3 + 999999 X238 <= 1.000003e+06
 C259: - X2 + X3 + 999999 X239 >= -3
 C260: - X2 + X3 + 999999 X239 <= 999996
 C261: X2 + X3 + 999999 X240 >= 19
 C262: X2 + X3 + 999999 X240 <= 1.000018e+06
 C263: - X2 + X3 + 999999 X241 >= -7
 C264: - X2 + X3 + 999999 X241 <= 999992
 C265: X2 + X3 + 999999 X242 >= 15
 C266: X2 + X3 + 999999 X242 <= 1.000014e+06
 C267: X2 + X3 + 999999 X243 >= 17
 C268: X2 + X3 + 999999 X243 <= 1.000016e+06
 C269: - X2 + X3 + 999999 X244 >= -5
 C270: - X2 + X3 + 999999 X244 <= 999994
 C271: - X240 + X245 <= 0
 C272: X242 + X245 <= 1
 C273: X244 + X245 <= 1
 C274: - X240 + X242 + X244 + X245 >= 0
 C275: - X239 + X246 <= 0
 C276: X241 + X246 <= 1
 C277: X243 + X246 <= 1
 C278: - X239 + X241 + X243 + X246 >= 0
 C279: - X239 + X247 <= 0
 C280: - X243 + X247 <= 0
 C281: X241 + X247 <= 1
 C282: - X239 + X241 - X243 + X247 >= -1
 C283: - X240 + X248 <= 0
 C284: - X244 + X248 <= 0
 C285: X242 + X248 <= 1
 C286: - X240 + X242 - X244 + X248 <= -1
 C287: - X765 >= -1
 C288: X172 - X249 - X688 >= -1
 C289: - 999999 X245 + 999999 X249 - X688 - X765 >= -999999
 C290: - X245 + X312 >= 0
 C291: - X762 >= -1
 C292: X19 - X250 - X531 >= -1
 C293: X96 - X250 - X608 >= -1
 C294: X173 - X250 - X685 >= -1
 C295: - 999999 X248 + 999999 X250 - X531 - X608 - X685 - X762 >= -999999
 C296: - X250 + X313 >= 0
 C297: - X764 >= -1
 C298: X20 - X251 - X533 >= -1
 C299: X97 - X251 - X610 >= -1
 C300: X174 - X251 - X687 >= -1
 C301: - 999999 X246 + 999999 X251 - X533 - X610 - X687 - X764 >= -999999
 C302: - X251 + X314 >= 0
 C303: - X763 >= -1
 C304: - 999999 X247 + 999999 X252 - X763 >= -999999
 C305: - X252 + X315 >= 0
 C306: - X249 - X250 - X251 - X252 + 4 X253 >= 0
 C307: - X312 - X313 - X314 - X315 + 4 X316 >= 0
 C308: - X249 - X250 + X254 + X255 = 0
 C309: - X251 - X252 + X256 + X257 - X259 = 0
 C311: X58 + X262 <= 1
 C312: X135 + X271 <= 1
 C313: X212 + X280 <= 1
 C314: X289 = 0
 C315: - 10 X254 - 12 X255 - 10 X256 - 12 X257 + X260 = 0
 C316: - 5 X254 - 7 X255 - 7 X256 - 5 X257 + X261 = 0
 C317: - 999999 X258 - 1.414213562373095 X300 - X301 + X317 >= -999999
 C318: - X2 + X260 + X302 = 0
 C319: - X3 + X261 + X303 = 0
 C320: - X298 + X299 + X304 = 0
 C321: - 999999 X262 + X263 - 1.414213562373095 X266 - X267 >= -999999
 C322: - X29 + X260 - X268 = 0
 C323: - X30 + X261 - X269 = 0
 C324: X264 - X265 - X270 = 0
 C325: - 999999 X271 + X272 - 1.414213562373095 X275 - X276 >= -999999
 C326: - X106 + X260 - X277 = 0
 C327: - X107 + X261 - X278 = 0
 C328: X273 - X274 - X279 = 0
 C329: - 999999 X280 + X281 - 1.414213562373095 X284 - X285 >= -999999
 C330: - X183 + X260 - X286 = 0
 C331: - X184 + X261 - X287 = 0
 C332: X282 - X283 - X288 = 0
 C333: - 999999 X259 - 1.414213562373095 X307 - X308 + X318 >= -999999
 C334: - X260 - X309 + X519 = 0
 C335: - X261 - X310 + X520 = 0
 C336: X305 - X306 - X311 = 0
 C337: X319 - 1.414213562373095 X324 - X325 >= 0
 C338: X2 - X326 - X519 = 0
 C339: X3 - X327 - X520 = 0
 C340: X322 - X323 - X328 = 0
 C341: X329 + X424 = 1
 C342: - 1.414213562373095 X418 - X419 + X423 >= 0
 C343: X2 - X420 = -2
 C344: X3 - X421 = 6
 C345: X416 - X417 - X422 = 0
 C347: - 1.414213562373095 X513 - X514 + X518 >= 0
 C348: X2 - X515 = 7
 C349: X3 - X516 = 8
 C350: X511 - X512 - X517 = 0
 C352: - X834 - X835 + X836 >= 0
 C353: X521 + X522 + X523 + X524 = 1
 C354: X519 + 999999 X521 <= 999998
 C355: X519 - 999999 X522 >= -999996
 C356: X520 - 999999 X523 >= -999990
 C357: X520 + 999999 X524 <= 1.000002e+06
 C358: - X519 + X520 + 999999 X525 >= 8
 C359: - X519 + X520 + 999999 X525 <= 1.000007e+06
 C360: X519 + X520 + 999999 X526 >= 10
 C361: X519 + X520 + 999999 X526 <= 1.000009e+06
 C362: - X519 + X520 + 999999 X527 >= 2
 C363: - X519 + X520 + 999999 X527 <= 1.000001e+06
 C364: X519 + X520 + 999999 X528 >= 4
 C365: X519 + X520 + 999999 X528 <= 1.000003e+06
 C366: 2 X519 + X520 + 999999 X529 >= 8
 C367: 2 X519 + X520 + 999999 X529 <= 1.000007e+06
 C368: - 2 X519 + X520 + 999999 X530 >= 4
 C369: - 2 X519 + X520 + 999999 X530 <= 1.000003e+06
 C370: - X526 + X531 <= 0
 C371: X528 + X531 <= 1
 C372: X530 + X531 <= 1
 C373: - X526 + X528 + X530 + X531 >= 0
 C374: - X525 + X532 <= 0
 C375: X527 + X532 <= 1
 C376: X529 + X532 <= 1
 C377: - X525 + X527 + X529 + X532 >= 0
 C378: - X525 + X533 <= 0
 C379: - X529 + X533 <= 0
 C380: X527 + X533 <= 1
 C381: - X525 + X527 - X529 + X533 >= -1
 C382: - X526 + X534 <= 0
 C383: - X530 + X534 <= 0
 C384: X528 + X534 <= 1
 C385: - X526 + X528 - X530 + X534 <= -1
 C386: X598 + X599 + X600 + X601 = 1
 C387: X519 + 999999 X598 <= 1.000002e+06
 C388: X519 - 999999 X599 >= -999992
 C389: X520 - 999999 X600 >= -999988
 C390: X520 + 999999 X601 <= 1.000002e+06
 C391: - X519 + X520 + 999999 X602 >= 6
 C392: - X519 + X520 + 999999 X602 <= 1.000005e+06
 C393: X519 + X520 + 999999 X603 >= 16
 C394: X519 + X520 + 999999 X603 <= 1.000015e+06
 C395: - X519 + X520 + 999999 X604 >= -2
 C396: - X519 + X520 + 999999 X604 <= 999997
 C397: X519 + X520 + 999999 X605 >= 8
 C398: X519 + X520 + 999999 X605 <= 1.000007e+06
 C399: 3 X519 + X520 + 999999 X606 >= 22
 C400: 3 X519 + X520 + 999999 X606 <= 1.000021e+06
 C401: - 3 X519 + X520 + 999999 X607 >= -8
 C402: - 3 X519 + X520 + 999999 X607 <= 999991
 C403: - X603 + X608 <= 0
 C404: X605 + X608 <= 1
 C405: X607 + X608 <= 1
 C406: - X603 + X605 + X607 + X608 >= 0
 C407: - X602 + X609 <= 0
 C408: X604 + X609 <= 1
 C409: X606 + X609 <= 1
 C410: - X602 + X604 + X606 + X609 >= 0
 C411: - X602 + X610 <= 0
 C412: - X606 + X610 <= 0
 C413: X604 + X610 <= 1
 C414: - X602 + X604 - X606 + X610 >= -1
 C415: - X603 + X611 <= 0
 C416: - X607 + X611 <= 0
 C417: X605 + X611 <= 1
 C418: - X603 + X605 - X607 + X611 <= -1
 C419: X675 + X676 + X677 + X678 = 1
 C420: X519 + 999999 X675 <= 1.000005e+06
 C421: X519 - 999999 X676 >= -999988
 C422: X520 - 999999 X677 >= -999995
 C423: X520 + 999999 X678 <= 999998
 C424: - X519 + X520 + 999999 X679 >= -4
 C425: - X519 + X520 + 999999 X679 <= 999995
 C426: X519 + X520 + 999999 X680 >= 13
 C427: X519 + X520 + 999999 X680 <= 1.000012e+06
 C428: - X519 + X520 + 999999 X681 >= -10
 C429: - X519 + X520 + 999999 X681 <= 999989
 C430: X519 + X520 + 999999 X682 >= 7
 C431: X519 + X520 + 999999 X682 <= 1.000006e+06
 C432: X519 + X520 + 999999 X683 >= 10
 C433: X519 + X520 + 999999 X683 <= 1.000009e+06
 C434: - X519 + X520 + 999999 X684 >= -7
 C435: - X519 + X520 + 999999 X684 <= 999992
 C436: - X680 + X685 <= 0
 C437: X682 + X685 <= 1
 C438: X684 + X685 <= 1
 C439: - X680 + X682 + X684 + X685 >= 0
 C440: - X679 + X686 <= 0
 C441: X681 + X686 <= 1
 C442: X683 + X686 <= 1
 C443: - X679 + X681 + X683 + X686 >= 0
 C444: - X679 + X687 <= 0
 C445: - X683 + X687 <= 0
 C446: X681 + X687 <= 1
 C447: - X679 + X681 - X683 + X687 >= -1
 C448: - X680 + X688 <= 0
 C449: - X684 + X688 <= 0
 C450: X682 + X688 <= 1
 C451: - X680 + X682 - X684 + X688 <= -1
 C452: X752 + X753 + X754 + X755 = 1
 C453: X519 + 999999 X752 <= 1.000008e+06
 C454: X519 - 999999 X753 >= -999986
 C455: X520 - 999999 X754 >= -999991
 C456: X520 + 999999 X755 <= 1.000003e+06
 C457: - X519 + X520 + 999999 X756 >= -3
 C458: - X519 + X520 + 999999 X756 <= 999996
 C459: X519 + X520 + 999999 X757 >= 19
 C460: X519 + X520 + 999999 X757 <= 1.000018e+06
 C461: - X519 + X520 + 999999 X758 >= -7
 C462: - X519 + X520 + 999999 X758 <= 999992
 C463: X519 + X520 + 999999 X759 >= 15
 C464: X519 + X520 + 999999 X759 <= 1.000014e+06
 C465: X519 + X520 + 999999 X760 >= 17
 C466: X519 + X520 + 999999 X760 <= 1.000016e+06
 C467: - X519 + X520 + 999999 X761 >= -5
 C468: - X519 + X520 + 999999 X761 <= 999994
 C469: - X757 + X762 <= 0
 C470: X759 + X762 <= 1
 C471: X761 + X762 <= 1
 C472: - X757 + X759 + X761 + X762 >= 0
 C473: - X756 + X763 <= 0
 C474: X758 + X763 <= 1
 C475: X760 + X763 <= 1
 C476: - X756 + X758 + X760 + X763 >= 0
 C477: - X756 + X764 <= 0
 C478: - X760 + X764 <= 0
 C479: X758 + X764 <= 1
 C480: - X756 + X758 - X760 + X764 >= -1
 C481: - X757 + X765 <= 0
 C482: - X761 + X765 <= 0
 C483: X759 + X765 <= 1
 C484: - X757 + X759 - X761 + X765 <= -1
 C485: X845 + X940 = 1
 C486: - 1.414213562373095 X934 - X935 + X939 >= 0
 C487: X519 - X936 = -2
 C488: X520 - X937 = 6
 C489: X932 - X933 - X938 = 0
 C491: - 1.414213562373095 X1029 - X1030 + X1034 >= 0
 C492: X519 - X1031 = 7
 C493: X520 - X1032 = 8
 C494: X1027 - X1028 - X1033 = 0
 C4: - X316 + [ X22 * X27 + X99 * X104 + X176 * X181 + X253 * X258 ] = 0
 C61: X22 + [ - X40 * X99 - X49 * X176 - X58 * X253 ] = 0
 C144: X99 + [ - X22 * X108 - X126 * X176 - X135 * X253 ] = 0
 C227: X176 + [ - X22 * X185 - X99 * X194 - X212 * X253 ] = 0
 C310: X253 + [ - X22 * X262 - X99 * X271 - X176 * X280 ] = 0
 C346: X320 + [ - X329 * X423 ] >= 0
 C351: X320 + [ - X424 * X518 ] >= 0
 C490: X837 + [ - X845 * X939 ] >= 0
 C495: X837 + [ - X940 * X1034 ] >= 0
Bounds
 X0 <= 999999
 X1 <= 999999
 -999999 <= X2 <= 999999
 -999999 <= X3 <= 999999
 -999999 <= X29 <= 999999
 -999999 <= X30 <= 999999
 X32 <= 999999
 X33 <= 999999
 X34 <= 999999
 X35 <= 999999
 X36 <= 999999
 X37 <= 999999
 X38 <= 999999
 X39 <= 999999
 X41 <= 999999
 X42 <= 999999
 X43 <= 999999
 X44 <= 999999
 X45 <= 999999
 X46 <= 999999
 X47 <= 999999
 X48 <= 999999
 X50 <= 999999
 X51 <= 999999
 X52 <= 999999
 X53 <= 999999
 X54 <= 999999
 X55 <= 999999
 X56 <= 999999
 X57 <= 999999
 X59 <= 999999
 X60 <= 999999
 X61 <= 999999
 X62 <= 999999
 X63 <= 999999
 X64 <= 999999
 X65 <= 999999
 X66 <= 999999
 X67 <= 999999
 X68 <= 999999
 X69 <= 999999
 X70 <= 999999
 X71 <= 999999
 X72 <= 999999
 X73 <= 999999
 X74 <= 999999
 X75 <= 999999
 X76 <= 999999
 X77 <= 999999
 X78 <= 999999
 X79 <= 999999
 X80 <= 999999
 -999999 <= X106 <= 999999
 -999999 <= X107 <= 999999
 X109 <= 999999
 X110 <= 999999
 X111 <= 999999
 X112 <= 999999
 X113 <= 999999
 X114 <= 999999
 X115 <= 999999
 X116 <= 999999
 X118 <= 999999
 X119 <= 999999
 X120 <= 999999
 X121 <= 999999
 X122 <= 999999
 X123 <= 999999
 X124 <= 999999
 X125 <= 999999
 X127 <= 999999
 X128 <= 999999
 X129 <= 999999
 X130 <= 999999
 X131 <= 999999
 X132 <= 999999
 X133 <= 999999
 X134 <= 999999
 X136 <= 999999
 X137 <= 999999
 X138 <= 999999
 X139 <= 999999
 X140 <= 999999
 X141 <= 999999
 X142 <= 999999
 X143 <= 999999
 X144 <= 999999
 X145 <= 999999
 X146 <= 999999
 X147 <= 999999
 X148 <= 999999
 X149 <= 999999
 X150 <= 999999
 X151 <= 999999
 X152 <= 999999
 X153 <= 999999
 X154 <= 999999
 X155 <= 999999
 X156 <= 999999
 X157 <= 999999
 -999999 <= X183 <= 999999
 -999999 <= X184 <= 999999
 X186 <= 999999
 X187 <= 999999
 X188 <= 999999
 X189 <= 999999
 X190 <= 999999
 X191 <= 999999
 X192 <= 999999
 X193 <= 999999
 X195 <= 999999
 X196 <= 999999
 X197 <= 999999
 X198 <= 999999
 X199 <= 999999
 X200 <= 999999
 X201 <= 999999
 X202 <= 999999
 X204 <= 999999
 X205 <= 999999
 X206 <= 999999
 X207 <= 999999
 X208 <= 999999
 X209 <= 999999
 X210 <= 999999
 X211 <= 999999
 X213 <= 999999
 X214 <= 999999
 X215 <= 999999
 X216 <= 999999
 X217 <= 999999
 X218 <= 999999
 X219 <= 999999
 X220 <= 999999
 X221 <= 999999
 X222 <= 999999
 X223 <= 999999
 X224 <= 999999
 X225 <= 999999
 X226 <= 999999
 X227 <= 999999
 X228 <= 999999
 X229 <= 999999
 X230 <= 999999
 X231 <= 999999
 X232 <= 999999
 X233 <= 999999
 X234 <= 999999
 -999999 <= X260 <= 999999
 -999999 <= X261 <= 999999
 X263 <= 999999
 X264 <= 999999
 X265 <= 999999
 X266 <= 999999
 X267 <= 999999
 X268 <= 999999
 X269 <= 999999
 X270 <= 999999
 X272 <= 999999
 X273 <= 999999
 X274 <= 999999
 X275 <= 999999
 X276 <= 999999
 X277 <= 999999
 X278 <= 999999
 X279 <= 999999
 X281 <= 999999
 X282 <= 999999
 X283 <= 999999
 X284 <= 999999
 X285 <= 999999
 X286 <= 999999
 X287 <= 999999
 X288 <= 999999
 X290 <= 999999
 X291 <= 999999
 X292 <= 999999
 X293 <= 999999
 X294 <= 999999
 X295 <= 999999
 X296 <= 999999
 X297 <= 999999
 X298 <= 999999
 X299 <= 999999
 X300 <= 999999
 X301 <= 999999
 X302 <= 999999
 X303 <= 999999
 X304 <= 999999
 X305 <= 999999
 X306 <= 999999
 X307 <= 999999
 X308 <= 999999
 X309 <= 999999
 X310 <= 999999
 X311 <= 999999
 X317 <= 999999
 X318 <= 999999
 X319 <= 999999
 X320 <= 999999
 X321 <= 999999
 X322 <= 999999
 X323 <= 999999
 X324 <= 999999
 X325 <= 999999
 X326 <= 999999
 X327 <= 999999
 X328 <= 999999
 X340 <= 999999
 X342 <= 999999
 X344 <= 999999
 X346 <= 999999
 -999999 <= X348 <= 999999
 -999999 <= X349 <= 999999
 X360 <= 999999
 X362 <= 999999
 X364 <= 999999
 X366 <= 999999
 -999999 <= X368 <= 999999
 -999999 <= X369 <= 999999
 X380 <= 999999
 X382 <= 999999
 X384 <= 999999
 X386 <= 999999
 -999999 <= X388 <= 999999
 -999999 <= X389 <= 999999
 X400 <= 999999
 X402 <= 999999
 X404 <= 999999
 X406 <= 999999
 -999999 <= X408 <= 999999
 -999999 <= X409 <= 999999
 X415 <= 999999
 X416 <= 999999
 X417 <= 999999
 X418 <= 999999
 X419 <= 999999
 X420 <= 999999
 X421 <= 999999
 X422 <= 999999
 X423 <= 999999
 X435 <= 999999
 X437 <= 999999
 X439 <= 999999
 X441 <= 999999
 -999999 <= X443 <= 999999
 -999999 <= X444 <= 999999
 X455 <= 999999
 X457 <= 999999
 X459 <= 999999
 X461 <= 999999
 -999999 <= X463 <= 999999
 -999999 <= X464 <= 999999
 X475 <= 999999
 X477 <= 999999
 X479 <= 999999
 X481 <= 999999
 -999999 <= X483 <= 999999
 -999999 <= X484 <= 999999
 X495 <= 999999
 X497 <= 999999
 X499 <= 999999
 X501 <= 999999
 -999999 <= X503 <= 999999
 -999999 <= X504 <= 999999
 X510 <= 999999
 X511 <= 999999
 X512 <= 999999
 X513 <= 999999
 X514 <= 999999
 X515 <= 999999
 X516 <= 999999
 X517 <= 999999
 X518 <= 999999
 -999999 <= X519 <= 999999
 -999999 <= X520 <= 999999
 -999999 <= X546 <= 999999
 -999999 <= X547 <= 999999
 X549 <= 999999
 X550 <= 999999
 X551 <= 999999
 X552 <= 999999
 X553 <= 999999
 X554 <= 999999
 X555 <= 999999
 X556 <= 999999
 X558 <= 999999
 X559 <= 999999
 X560 <= 999999
 X561 <= 999999
 X562 <= 999999
 X563 <= 999999
 X564 <= 999999
 X565 <= 999999
 X567 <= 999999
 X568 <= 999999
 X569 <= 999999
 X570 <= 999999
 X571 <= 999999
 X572 <= 999999
 X573 <= 999999
 X574 <= 999999
 X576 <= 999999
 X577 <= 999999
 X578 <= 999999
 X579 <= 999999
 X580 <= 999999
 X581 <= 999999
 X582 <= 999999
 X583 <= 999999
 X584 <= 999999
 X585 <= 999999
 X586 <= 999999
 X587 <= 999999
 X588 <= 999999
 X589 <= 999999
 X590 <= 999999
 X591 <= 999999
 X592 <= 999999
 X593 <= 999999
 X594 <= 999999
 X595 <= 999999
 X596 <= 999999
 X597 <= 999999
 -999999 <= X623 <= 999999
 -999999 <= X624 <= 999999
 X626 <= 999999
 X627 <= 999999
 X628 <= 999999
 X629 <= 999999
 X630 <= 999999
 X631 <= 999999
 X632 <= 999999
 X633 <= 999999
 X635 <= 999999
 X636 <= 999999
 X637 <= 999999
 X638 <= 999999
 X639 <= 999999
 X640 <= 999999
 X641 <= 999999
 X642 <= 999999
 X644 <= 999999
 X645 <= 999999
 X646 <= 999999
 X647 <= 999999
 X648 <= 999999
 X649 <= 999999
 X650 <= 999999
 X651 <= 999999
 X653 <= 999999
 X654 <= 999999
 X655 <= 999999
 X656 <= 999999
 X657 <= 999999
 X658 <= 999999
 X659 <= 999999
 X660 <= 999999
 X661 <= 999999
 X662 <= 999999
 X663 <= 999999
 X664 <= 999999
 X665 <= 999999
 X666 <= 999999
 X667 <= 999999
 X668 <= 999999
 X669 <= 999999
 X670 <= 999999
 X671 <= 999999
 X672 <= 999999
 X673 <= 999999
 X674 <= 999999
 -999999 <= X700 <= 999999
 -999999 <= X701 <= 999999
 X703 <= 999999
 X704 <= 999999
 X705 <= 999999
 X706 <= 999999
 X707 <= 999999
 X708 <= 999999
 X709 <= 999999
 X710 <= 999999
 X712 <= 999999
 X713 <= 999999
 X714 <= 999999
 X715 <= 999999
 X716 <= 999999
 X717 <= 999999
 X718 <= 999999
 X719 <= 999999
 X721 <= 999999
 X722 <= 999999
 X723 <= 999999
 X724 <= 999999
 X725 <= 999999
 X726 <= 999999
 X727 <= 999999
 X728 <= 999999
 X730 <= 999999
 X731 <= 999999
 X732 <= 999999
 X733 <= 999999
 X734 <= 999999
 X735 <= 999999
 X736 <= 999999
 X737 <= 999999
 X738 <= 999999
 X739 <= 999999
 X740 <= 999999
 X741 <= 999999
 X742 <= 999999
 X743 <= 999999
 X744 <= 999999
 X745 <= 999999
 X746 <= 999999
 X747 <= 999999
 X748 <= 999999
 X749 <= 999999
 X750 <= 999999
 X751 <= 999999
 -999999 <= X777 <= 999999
 -999999 <= X778 <= 999999
 X780 <= 999999
 X781 <= 999999
 X782 <= 999999
 X783 <= 999999
 X784 <= 999999
 X785 <= 999999
 X786 <= 999999
 X787 <= 999999
 X789 <= 999999
 X790 <= 999999
 X791 <= 999999
 X792 <= 999999
 X793 <= 999999
 X794 <= 999999
 X795 <= 999999
 X796 <= 999999
 X798 <= 999999
 X799 <= 999999
 X800 <= 999999
 X801 <= 999999
 X802 <= 999999
 X803 <= 999999
 X804 <= 999999
 X805 <= 999999
 X807 <= 999999
 X808 <= 999999
 X809 <= 999999
 X810 <= 999999
 X811 <= 999999
 X812 <= 999999
 X813 <= 999999
 X814 <= 999999
 X815 <= 999999
 X816 <= 999999
 X817 <= 999999
 X818 <= 999999
 X819 <= 999999
 X820 <= 999999
 X821 <= 999999
 X822 <= 999999
 X823 <= 999999
 X824 <= 999999
 X825 <= 999999
 X826 <= 999999
 X827 <= 999999
 X828 <= 999999
 X834 <= 999999
 X835 <= 999999
 X836 <= 999999
 X837 <= 999999
 X838 <= 999999
 X839 <= 999999
 X840 <= 999999
 X841 <= 999999
 X842 <= 999999
 X843 <= 999999
 X844 <= 999999
 X856 <= 999999
 X858 <= 999999
 X860 <= 999999
 X862 <= 999999
 -999999 <= X864 <= 999999
 -999999 <= X865 <= 999999
 X876 <= 999999
 X878 <= 999999
 X880 <= 999999
 X882 <= 999999
 -999999 <= X884 <= 999999
 -999999 <= X885 <= 999999
 X896 <= 999999
 X898 <= 999999
 X900 <= 999999
 X902 <= 999999
 -999999 <= X904 <= 999999
 -999999 <= X905 <= 999999
 X916 <= 999999
 X918 <= 999999
 X920 <= 999999
 X922 <= 999999
 -999999 <= X924 <= 999999
 -999999 <= X925 <= 999999
 X931 <= 999999
 X932 <= 999999
 X933 <= 999999
 X934 <= 999999
 X935 <= 999999
 X936 <= 999999
 X937 <= 999999
 X938 <= 999999
 X939 <= 999999
 X951 <= 999999
 X953 <= 999999
 X955 <= 999999
 X957 <= 999999
 -999999 <= X959 <= 999999
 -999999 <= X960 <= 999999
 X971 <= 999999
 X973 <= 999999
 X975 <= 999999
 X977 <= 999999
 -999999 <= X979 <= 999999
 -999999 <= X980 <= 999999
 X991 <= 999999
 X993 <= 999999
 X995 <= 999999
 X997 <= 999999
 -999999 <= X999 <= 999999
 -999999 <= X1000 <= 999999
 X1011 <= 999999
 X1013 <= 999999
 X1015 <= 999999
 X1017 <= 999999
 -999999 <= X1019 <= 999999
 -999999 <= X1020 <= 999999
 X1026 <= 999999
 X1027 <= 999999
 X1028 <= 999999
 X1029 <= 999999
 X1030 <= 999999
 X1031 <= 999999
 X1032 <= 999999
 X1033 <= 999999
 X1034 <= 999999
Binaries
 X4 X5 X6 X7 X8 X9 X10 X11 X12 X13 X14 X15 X16 X17 X18 X19 X20 X21 X22 X23
 X24 X25 X26 X27 X28 X31 X40 X49 X58 X81 X82 X83 X84 X85 X86 X87 X88 X89
 X90 X91 X92 X93 X94 X95 X96 X97 X98 X99 X100 X101 X102 X103 X104 X105 X108
 X117 X126 X135 X158 X159 X160 X161 X162 X163 X164 X165 X166 X167 X168 X169
 X170 X171 X172 X173 X174 X175 X176 X177 X178 X179 X180 X181 X182 X185 X194
 X203 X212 X235 X236 X237 X238 X239 X240 X241 X242 X243 X244 X245 X246 X247
 X248 X249 X250 X251 X252 X253 X254 X255 X256 X257 X258 X259 X262 X271 X280
 X289 X312 X313 X314 X315 X316 X329 X330 X331 X332 X333 X334 X335 X336 X337
 X338 X339 X341 X343 X345 X347 X350 X351 X352 X353 X354 X355 X356 X357 X358
 X359 X361 X363 X365 X367 X370 X371 X372 X373 X374 X375 X376 X377 X378 X379
 X381 X383 X385 X387 X390 X391 X392 X393 X394 X395 X396 X397 X398 X399 X401
 X403 X405 X407 X410 X411 X412 X413 X414 X424 X425 X426 X427 X428 X429 X430
 X431 X432 X433 X434 X436 X438 X440 X442 X445 X446 X447 X448 X449 X450 X451
 X452 X453 X454 X456 X458 X460 X462 X465 X466 X467 X468 X469 X470 X471 X472
 X473 X474 X476 X478 X480 X482 X485 X486 X487 X488 X489 X490 X491 X492 X493
 X494 X496 X498 X500 X502 X505 X506 X507 X508 X509 X521 X522 X523 X524 X525
 X526 X527 X528 X529 X530 X531 X532 X533 X534 X535 X536 X537 X538 X539 X540
 X541 X542 X543 X544 X545 X548 X557 X566 X575 X598 X599 X600 X601 X602 X603
 X604 X605 X606 X607 X608 X609 X610 X611 X612 X613 X614 X615 X616 X617 X618
 X619 X620 X621 X622 X625 X634 X643 X652 X675 X676 X677 X678 X679 X680 X681
 X682 X683 X684 X685 X686 X687 X688 X689 X690 X691 X692 X693 X694 X695 X696
 X697 X698 X699 X702 X711 X720 X729 X752 X753 X754 X755 X756 X757 X758 X759
 X760 X761 X762 X763 X764 X765 X766 X767 X768 X769 X770 X771 X772 X773 X774
 X775 X776 X779 X788 X797 X806 X829 X830 X831 X832 X833 X845 X846 X847 X848
 X849 X850 X851 X852 X853 X854 X855 X857 X859 X861 X863 X866 X867 X868 X869
 X870 X871 X872 X873 X874 X875 X877 X879 X881 X883 X886 X887 X888 X889 X890
 X891 X892 X893 X894 X895 X897 X899 X901 X903 X906 X907 X908 X909 X910 X911
 X912 X913 X914 X915 X917 X919 X921 X923 X926 X927 X928 X929 X930 X940 X941
 X942 X943 X944 X945 X946 X947 X948 X949 X950 X952 X954 X956 X958 X961 X962
 X963 X964 X965 X966 X967 X968 X969 X970 X972 X974 X976 X978 X981 X982 X983
 X984 X985 X986 X987 X988 X989 X990 X992 X994 X996 X998 X1001 X1002 X1003
 X1004 X1005 X1006 X1007 X1008 X1009 X1010 X1012 X1014 X1016 X1018 X1021
 X1022 X1023 X1024 X1025
Generals
 X2 X3 X29 X30 X106 X107 X183 X184 X260 X261 X348 X349 X368 X369 X388 X389
 X408 X409 X443 X444 X463 X464 X483 X484 X503 X504 X519 X520 X546 X547 X623
 X624 X700 X701 X777 X778 X864 X865 X884 X885 X904 X905 X924 X925 X959 X960
 X979 X980 X999 X1000 X1019 X1020
General Constraints
 abs_x_Out: X67 = ABS ( X71 )
 abs_y_Out: X68 = ABS ( X72 )
 abs(abs_x-abs_y): X70 = ABS ( X73 )
 min_Out: X69 = MIN ( X67 , X68 , 1.999998e+06 )
 absX_dOmOn: X42 = ABS ( X46 )
 absY_dOmOn: X43 = ABS ( X47 )
 absXY_dOmOn: X45 = ABS ( X48 )
 min_dOmOn: X44 = MIN ( X42 , X43 , 999999 )
 absX_dOmOn: X51 = ABS ( X55 )
 absY_dOmOn: X52 = ABS ( X56 )
 absXY_dOmOn: X54 = ABS ( X57 )
 min_dOmOn: X53 = MIN ( X51 , X52 , 999999 )
 absX_dOmOn: X60 = ABS ( X64 )
 absY_dOmOn: X61 = ABS ( X65 )
 absXY_dOmOn: X63 = ABS ( X66 )
 min_dOmOn: X62 = MIN ( X60 , X61 , 999999 )
 absX_dIn: X74 = ABS ( X78 )
 absY_dIn: X75 = ABS ( X79 )
 absXY_dIn: X77 = ABS ( X80 )
 min_dIn: X76 = MIN ( X74 , X75 , 999999 )
 abs_x_Out: X144 = ABS ( X148 )
 abs_y_Out: X145 = ABS ( X149 )
 abs(abs_x-abs_y): X147 = ABS ( X150 )
 min_Out: X146 = MIN ( X144 , X145 , 1.999998e+06 )
 absX_dOmOn: X110 = ABS ( X114 )
 absY_dOmOn: X111 = ABS ( X115 )
 absXY_dOmOn: X113 = ABS ( X116 )
 min_dOmOn: X112 = MIN ( X110 , X111 , 999999 )
 absX_dOmOn: X128 = ABS ( X132 )
 absY_dOmOn: X129 = ABS ( X133 )
 absXY_dOmOn: X131 = ABS ( X134 )
 min_dOmOn: X130 = MIN ( X128 , X129 , 999999 )
 absX_dOmOn: X137 = ABS ( X141 )
 absY_dOmOn: X138 = ABS ( X142 )
 absXY_dOmOn: X140 = ABS ( X143 )
 min_dOmOn: X139 = MIN ( X137 , X138 , 999999 )
 absX_dIn: X151 = ABS ( X155 )
 absY_dIn: X152 = ABS ( X156 )
 absXY_dIn: X154 = ABS ( X157 )
 min_dIn: X153 = MIN ( X151 , X152 , 999999 )
 abs_x_Out: X221 = ABS ( X225 )
 abs_y_Out: X222 = ABS ( X226 )
 abs(abs_x-abs_y): X224 = ABS ( X227 )
 min_Out: X223 = MIN ( X221 , X222 , 1.999998e+06 )
 absX_dOmOn: X187 = ABS ( X191 )
 absY_dOmOn: X188 = ABS ( X192 )
 absXY_dOmOn: X190 = ABS ( X193 )
 min_dOmOn: X189 = MIN ( X187 , X188 , 999999 )
 absX_dOmOn: X196 = ABS ( X200 )
 absY_dOmOn: X197 = ABS ( X201 )
 absXY_dOmOn: X199 = ABS ( X202 )
 min_dOmOn: X198 = MIN ( X196 , X197 , 999999 )
 absX_dOmOn: X214 = ABS ( X218 )
 absY_dOmOn: X215 = ABS ( X219 )
 absXY_dOmOn: X217 = ABS ( X220 )
 min_dOmOn: X216 = MIN ( X214 , X215 , 999999 )
 absX_dIn: X228 = ABS ( X232 )
 absY_dIn: X229 = ABS ( X233 )
 absXY_dIn: X231 = ABS ( X234 )
 min_dIn: X230 = MIN ( X228 , X229 , 999999 )
 abs_x_Out: X298 = ABS ( X302 )
 abs_y_Out: X299 = ABS ( X303 )
 abs(abs_x-abs_y): X301 = ABS ( X304 )
 min_Out: X300 = MIN ( X298 , X299 , 1.999998e+06 )
 absX_dOmOn: X264 = ABS ( X268 )
 absY_dOmOn: X265 = ABS ( X269 )
 absXY_dOmOn: X267 = ABS ( X270 )
 min_dOmOn: X266 = MIN ( X264 , X265 , 999999 )
 absX_dOmOn: X273 = ABS ( X277 )
 absY_dOmOn: X274 = ABS ( X278 )
 absXY_dOmOn: X276 = ABS ( X279 )
 min_dOmOn: X275 = MIN ( X273 , X274 , 999999 )
 absX_dOmOn: X282 = ABS ( X286 )
 absY_dOmOn: X283 = ABS ( X287 )
 absXY_dOmOn: X285 = ABS ( X288 )
 min_dOmOn: X284 = MIN ( X282 , X283 , 999999 )
 absX_dIn: X305 = ABS ( X309 )
 absY_dIn: X306 = ABS ( X310 )
 absXY_dIn: X308 = ABS ( X311 )
 min_dIn: X307 = MIN ( X305 , X306 , 999999 )
 |vi.x-vj.x|_0: X322 = ABS ( X326 )
 |vi.y-j.y|_0: X323 = ABS ( X327 )
 min(|vi.x-vj.x|,|vi.y-j.y|)_0: X324 = MIN ( X322 , X323 , 999999 )
 ||vi.x-vj.x|-|vi.y-j.y||_0: X325 = ABS ( X328 )
 |vi.x-sj.x|v0->s1: X416 = ABS ( X420 )
 |vi.y-sj.y|v0->s1: X417 = ABS ( X421 )
 min(|vi.x-sj.x|,|vi.y-sj.y|)v0->s1: X418 = MIN ( X416 , X417 , 999999 )
 ||vi.x-sj.x|-|vi.y-sj.y||v0->s1: X419 = ABS ( X422 )
 |vi.x-sj.x|v0->s2: X511 = ABS ( X515 )
 |vi.y-sj.y|v0->s2: X512 = ABS ( X516 )
 min(|vi.x-sj.x|,|vi.y-sj.y|)v0->s2: X513 = MIN ( X511 , X512 , 999999 )
 ||vi.x-sj.x|-|vi.y-sj.y||v0->s2: X514 = ABS ( X517 )
 |vi.x-sj.x|v1->s1: X932 = ABS ( X936 )
 |vi.y-sj.y|v1->s1: X933 = ABS ( X937 )
 min(|vi.x-sj.x|,|vi.y-sj.y|)v1->s1: X934 = MIN ( X932 , X933 , 999999 )
 ||vi.x-sj.x|-|vi.y-sj.y||v1->s1: X935 = ABS ( X938 )
 |vi.x-sj.x|v1->s2: X1027 = ABS ( X1031 )
 |vi.y-sj.y|v1->s2: X1028 = ABS ( X1032 )
 min(|vi.x-sj.x|,|vi.y-sj.y|)v1->s2: X1029 = MIN ( X1027 , X1028 , 999999 )
 ||vi.x-sj.x|-|vi.y-sj.y||v1->s2: X1030 = ABS ( X1033 )
End
